solution status: optimal solution found
objective value:                     181348.981367347
d11(0,0)                                            1 	(obj:0)
d11(1,1)                                            1 	(obj:0)
d11(1,2)                                            1 	(obj:0)
d11(2,3)                                            1 	(obj:0)
d11(2,5)                                            1 	(obj:0)
d11(3,7)                                            1 	(obj:0)
d11(3,8)                                            1 	(obj:0)
d11(3,9)                                            1 	(obj:0)
d11(3,10)                                           1 	(obj:0)
d11(3,11)                                           1 	(obj:0)
d11(3,12)                                           1 	(obj:0)
d11(3,13)                                           1 	(obj:0)
d12(2,4)                                            1 	(obj:0)
d21(3,7)                                            1 	(obj:0)
d21(3,9)                                            1 	(obj:0)
WB(2)                                3315.65537776224 	(obj:0)
STE(1,1)                             5164.56175960742 	(obj:0)
STE(0,0)                                        14175 	(obj:0)
STE(1,2)                             6822.81165849624 	(obj:0)
STE(2,3)                             2551.49994999965 	(obj:0)
STE(2,4)                             4030.56175960742 	(obj:0)
STE(2,5)                             4209.74984888851 	(obj:0)
STE(2,6)                             5688.81165849624 	(obj:0)
STE(3,7)                            -240.749948889168 	(obj:0)
STE(3,8)                             1417.49994999965 	(obj:0)
STE(3,9)                              1238.3118607186 	(obj:0)
STE(3,10)                            2896.56175960742 	(obj:0)
STE(3,11)                            1417.49994999969 	(obj:0)
STE(3,12)                            3075.74984888851 	(obj:0)
STE(3,13)                            2896.56175960742 	(obj:0)
STE(3,14)                            4554.81165849624 	(obj:0)
AVE(2)                               3315.65537776224 	(obj:0)
WB(3)                                3315.65799770399 	(obj:0)
y1(1,1)                              7088.79441635332 	(obj:0)
y1(1,2)                              5596.36950735338 	(obj:0)
y1(2,3)                                1331.155628647 	(obj:0)
y1(2,5)                              1331.15562864696 	(obj:0)
y1(3,7)                              1492.42490899994 	(obj:0)
y1(3,9)                              1492.42490899994 	(obj:0)
y1(3,11)                             1492.42490899994 	(obj:0)
y1(3,13)                             1492.42490899994 	(obj:0)
AVE(3)                               3315.65799770399 	(obj:0)
WG(1)                                3248.33172520918 	(obj:10)
BG(1)                                6658.54190372282 	(obj:10)
BG(2)                                 4031.7320088235 	(obj:10)
BG(3)                                4196.29249897959 	(obj:10)
AVE(1)                               3248.33172520918 	(obj:0)
